50, 798
32, 37
17, 22
42, 47
30, 35
22, 27
14, 19
6, 11
18, 23
5, 10
31, 36
21, 26
34, 39
44, 49
10, 15
24, 29
44, 49
46, 51
20, 25
9, 14
36, 41
25, 30
1, 6
11, 16
30, 35
41, 46
42, 47
19, 24
37, 42
29, 34
44, 49
29, 34
48, 53
19, 24
13, 18
22, 27
27, 32
22, 27
21, 26
1, 6
46, 51
5, 10
27, 32
45, 50
28, 33
45, 50
17, 22
21, 26
36, 41
50, 55
40, 45
